N = 50;
MinK = 6;
Capacity = 200;

Scale = 10;
DistanceRoundingMode = Floor;
X = array1d(0..N, [40, 25, 22, 22, 20, 20, 18, 15, 15, 10, 10, 8, 8, 5, 5, 2, 0, 0, 44, 42, 42, 40, 40, 38, 38, 35, 95, 95, 92, 90, 88, 88, 87, 85, 85, 67, 65, 65, 62, 60, 60, 58, 55, 55, 55, 20, 18, 2, 42, 42, 72]);
Y = array1d(0..N, [50, 85, 75, 85, 80, 85, 75, 75, 80, 35, 40, 40, 45, 35, 45, 40, 40, 45, 5, 10, 15, 5, 15, 5, 15, 5, 30, 35, 30, 35, 30, 35, 30, 25, 35, 85, 85, 82, 80, 80, 85, 75, 80, 85, 82, 82, 80, 45, 5, 12, 35]);

Demands = array1d(1..N, [20, 30, 10, 40, 20, 20, 20, 10, 20, 30, 40, 20, 10, 10, 20, 20, 20, 20, 40, 10, 10, 40, 30, 10, 20, 30, 20, 10, 10, 10, 20, 10, 10, 30, 20, 40, 10, 30, 10, 30, 20, 10, 20, 10, 10, 10, 10, 10, 10, 30]);

ServiceTimes = array1d(1..N, [10, 10, 10, 10, 10, 10, 10, 10, 10, 10, 10, 10, 10, 10, 10, 10, 10, 10, 10, 10, 10, 10, 10, 10, 10, 10, 10, 10, 10, 10, 10, 10, 10, 10, 10, 10, 10, 10, 10, 10, 10, 10, 10, 10, 10, 10, 10, 10, 10, 10]);

TimeWindows = array2d(1..2, 0..N, [|
    0, 130, 35,  94, 126,  40,  80,  64,  76,  76, 104,  44,  49, 127, 35,  43,  57, 129,  72,  57, 107,  52,  77,  50, 133, 124, 100,  57,  55,  52,  59,  50, 116,  51,  96, 124,  43, 109,  60, 36,  70,  77, 33, 113,  49, 37,  98, 38, 124,  89, 101 |
  240, 190, 95, 154, 186, 100, 140, 124, 136, 136, 164, 104, 109, 187, 95, 103, 117, 189, 132, 117, 167, 112, 137, 110, 193, 184, 160, 117, 115, 112, 119, 110, 176, 111, 156, 184, 103, 169, 120, 96, 130, 137, 93, 173, 109, 97, 158, 98, 184, 149, 161
|]);
